benchmarks_vrp/CMT2/tsp_classic/CMT2_5.vrp
NAME: CMT2_5
TYPE: CVRP
COMMENT: 835.26 - Cluster Nr.5
DIMENSION: 12
CAPACITY: 140
EDGE_WEIGHT_TYPE: EUC_2D
NODE_COORD_TYPE: TWOD_COORDS
NODE_COORD_SECTION: 
8 54 10
10 50 4
11 65 27
12 66 8
9 64 4
4 55 20
1 59 5
3 60 15
5 40 40
6 52 26
2 66 14
7 62 24
DEPOT_SECTION: 
5
-1
DEMAND_SECTION: 
5 0
4 21
11 14
2 22
8 12
1 3
6 13
9 13
12 11
7 8
3 14
10 8
EOF
