benchmarks_vrp/CMT2/tsp_classic/CMT2_5.tour
NAME: CMT2_5 solution
TYPE: TOUR
TOUR_SECTION:
5 6 4 8 10 1 9 12 2 3 7 11 -1
-1
EOF